(set-logic QF_S)
(declare-fun var0 () String)
(declare-fun var1 () String)
(declare-fun var2 () String)
(declare-fun var3 () String)
(assert (str.contains var0 var1))
(assert (>= (str.to.int (str.at var2 129)) (str.indexof var3 var2 94)))
(assert (str.contains "yyFhn3" var2))
(assert (str.contains "1J#_=v:y" ""))
(check-sat)